(declare-const delta_i2 Int)
(declare-const delta_i1 Int)
(assert (exists
         ((|S1,0?1| Real) (|i2'?2| Int) (KSUM1?3 Int) (|K1,0?4| Int)
            (K?5 Int) (|i1'?6| Int) (|i2'?7| Int) (i2?8 Int) (n?9 Int)
            (i1?10 Int))
         (and (< (- i1?10) 0) (< (+ (- n?9) i1?10) 0) (<= (- K?5) 0)
                (<= (- |K1,0?4|) 0) (= (+ |K1,0?4| (- K?5)) 0)
                (<= (+ KSUM1?3 (- K?5)) 0)
                (= (+ (- |S1,0?1|) |i2'?2| (- |K1,0?4|)) 0)
                (= (+ (- KSUM1?3) |K1,0?4|) 0) (= |S1,0?1| 0)
                (or (and (= K?5 0) (= (- |i2'?2|) 0))
                      (and (<= (+ (- K?5) 1) 0) (<= (+ (- n?9) 1) 0)
                             (<= (+ |i2'?2| (- n?9)) 0)
                             (<= (+ (- |i2'?2|) 1) 0)))
                (= (+ |i2'?2| (- K?5)) 0) (<= (- K?5) 0) (<= (- |i2'?2|) 0)
                (< (- n?9) 0) (<= (+ (- |i2'?2|) n?9) 0)
                (= (+ |i2'?7| (- |i2'?2|)) 0) (= (+ |i1'?6| (- i1?10) -1) 0)
                (= delta_i1 (+ |i1'?6| (- i1?10)))
                (= delta_i2 (+ |i2'?7| (- i2?8))))))
(check-sat)
